SCIP version 0.82 [precision: 8 byte] [memory: block] [mode: optimized] [LP solver: SOPLEX 1.3.0]
Copyright (c) 2002-2006 Konrad-Zuse-Zentrum fuer Informationstechnik Berlin (ZIB)

reading parameter file <scip.set>

read problem </ufs/psxjm3/instances/udine1.ctt.c.zpl>
============

****************************************************
* Zuse Institute Mathematical Programming Language *
* Release 2.04  Copyright (C)2005 by Thorsten Koch *
****************************************************

original problem has 11040 variables (11040 bin, 0 int, 0 impl, 0 cont) and 2491 constraints

solve problem
=============

LP Solver <SOPLEX 1.3.0>: dual feasibility tolerance cannot be set -- tolerance of SCIP and LP solver may differ
LP Solver <SOPLEX 1.3.0>: barrier convergence tolerance cannot be set -- tolerance of SCIP and LP solver may differ
LP Solver <SOPLEX 1.3.0>: fastmip setting not available -- SCIP parameter has no effect
LP Solver <SOPLEX 1.3.0>: scaling not available -- SCIP parameter has no effect
LP Solver <SOPLEX 1.3.0>: presolving not available -- SCIP parameter has no effect
transformed problem has 11040 variables (11040 bin, 0 int, 0 impl, 0 cont) and 2491 constraints
   2491 constraints of type <linear>

presolving:
(round 1) 240 del vars, 4 del conss, 240 chg bounds, 0 chg sides, 0 chg coeffs, 0 upgd conss, 0 impls, 1675 clqs
(round 2) 240 del vars, 32 del conss, 240 chg bounds, 0 chg sides, 0 chg coeffs, 0 upgd conss, 0 impls, 1675 clqs
(round 3) 240 del vars, 1581 del conss, 240 chg bounds, 1582 chg sides, 0 chg coeffs, 0 upgd conss, 0 impls, 1675 clqs
(round 4) 240 del vars, 1581 del conss, 240 chg bounds, 1582 chg sides, 0 chg coeffs, 838 upgd conss, 0 impls, 1675 clqs
   (2.1s) probing: 100/10800 (0.9%) - 0 fixings, 0 aggregations, 0 implications, 0 bound changes
presolving (5 rounds):
 240 deleted vars, 1581 deleted constraints, 240 tightened bounds, 0 added holes, 1582 changed sides, 0 changed coefficients
 0 implications, 1675 cliques
presolved problem has 10800 variables (10800 bin, 0 int, 0 impl, 0 cont) and 910 constraints
    838 constraints of type <setppc>
     72 constraints of type <linear>
objective value is always integral
Presolving Time: 1.99

 time | node  | left  |LP iter| mem |mdpt |frac |vars |cons |ccons|cols |rows |cuts |confs|strbr|  dualbound   | primalbound  |  gap   
  2.6s|     1 |     0 |  1363 |  29M|   0 |   0 |  10k| 910 | 910 |  10k| 910 |   0 |   0 |   0 | 0.000000e+00 |      --      |    Inf 
* 2.7s|     1 |     0 |  1363 |  29M|   0 |   - |  10k| 910 | 910 |  10k| 910 |   0 |   0 |   0 | 0.000000e+00 | 0.000000e+00 |   0.00%

SCIP Status        : problem is solved [optimal solution found]
Solving Time (sec) : 2.67
Solving Nodes      : 1
Primal Bound       : +0.00000000000000e+00 (1 solutions)
Dual Bound         : +0.00000000000000e+00
Gap                : 0.00 %

primal solution:
================

objective value:                                    0
Taught#1#1#21                                       1 	(obj:0)
Taught#1#2#14                                       1 	(obj:0)
Taught#1#3#28                                       1 	(obj:0)
Taught#1#4#43                                       1 	(obj:0)
Taught#1#5#22                                       1 	(obj:0)
Taught#1#6#17                                       1 	(obj:0)
Taught#1#7#27                                       1 	(obj:0)
Taught#1#8#34                                       1 	(obj:0)
Taught#1#9#18                                       1 	(obj:0)
Taught#1#10#38                                      1 	(obj:0)
Taught#1#11#29                                      1 	(obj:0)
Taught#1#12#10                                      1 	(obj:0)
Taught#2#1#11                                       1 	(obj:0)
Taught#2#2#10                                       1 	(obj:0)
Taught#2#3#32                                       1 	(obj:0)
Taught#2#4#5                                        1 	(obj:0)
Taught#2#5#29                                       1 	(obj:0)
Taught#2#6#34                                       1 	(obj:0)
Taught#2#7#23                                       1 	(obj:0)
Taught#2#8#20                                       1 	(obj:0)
Taught#2#9#26                                       1 	(obj:0)
Taught#2#10#44                                      1 	(obj:0)
Taught#2#11#17                                      1 	(obj:0)
Taught#2#12#36                                      1 	(obj:0)
Taught#3#1#30                                       1 	(obj:0)
Taught#3#2#3                                        1 	(obj:0)
Taught#3#3#4                                        1 	(obj:0)
Taught#3#4#2                                        1 	(obj:0)
Taught#3#5#12                                       1 	(obj:0)
Taught#3#6#17                                       1 	(obj:0)
Taught#3#7#6                                        1 	(obj:0)
Taught#3#8#42                                       1 	(obj:0)
Taught#3#9#36                                       1 	(obj:0)
Taught#3#10#28                                      1 	(obj:0)
Taught#3#11#8                                       1 	(obj:0)
Taught#3#12#15                                      1 	(obj:0)
Taught#4#1#30                                       1 	(obj:0)
Taught#4#2#39                                       1 	(obj:0)
Taught#4#3#20                                       1 	(obj:0)
Taught#4#4#24                                       1 	(obj:0)
Taught#4#5#3                                        1 	(obj:0)
Taught#4#6#22                                       1 	(obj:0)
Taught#4#7#9                                        1 	(obj:0)
Taught#4#8#2                                        1 	(obj:0)
Taught#4#9#41                                       1 	(obj:0)
Taught#4#10#27                                      1 	(obj:0)
Taught#4#11#36                                      1 	(obj:0)
Taught#4#12#4                                       1 	(obj:0)
Taught#5#1#34                                       1 	(obj:0)
Taught#5#2#21                                       1 	(obj:0)
Taught#5#3#45                                       1 	(obj:0)
Taught#5#4#17                                       1 	(obj:0)
Taught#5#5#7                                        1 	(obj:0)
Taught#5#7#18                                       1 	(obj:0)
Taught#5#8#26                                       1 	(obj:0)
Taught#5#9#10                                       1 	(obj:0)
Taught#5#10#39                                      1 	(obj:0)
Taught#5#11#11                                      1 	(obj:0)
Taught#6#1#13                                       1 	(obj:0)
Taught#6#2#8                                        1 	(obj:0)
Taught#6#3#12                                       1 	(obj:0)
Taught#6#4#29                                       1 	(obj:0)
Taught#6#5#32                                       1 	(obj:0)
Taught#6#6#16                                       1 	(obj:0)
Taught#6#8#15                                       1 	(obj:0)
Taught#6#9#4                                        1 	(obj:0)
Taught#6#10#5                                       1 	(obj:0)
Taught#6#11#9                                       1 	(obj:0)
Taught#6#12#23                                      1 	(obj:0)
Taught#7#2#38                                       1 	(obj:0)
Taught#7#3#8                                        1 	(obj:0)
Taught#7#4#35                                       1 	(obj:0)
Taught#7#5#26                                       1 	(obj:0)
Taught#7#6#1                                        1 	(obj:0)
Taught#7#7#30                                       1 	(obj:0)
Taught#7#9#14                                       1 	(obj:0)
Taught#7#10#25                                      1 	(obj:0)
Taught#7#11#18                                      1 	(obj:0)
Taught#7#12#3                                       1 	(obj:0)
Taught#8#1#8                                        1 	(obj:0)
Taught#8#2#26                                       1 	(obj:0)
Taught#8#3#40                                       1 	(obj:0)
Taught#8#4#45                                       1 	(obj:0)
Taught#8#5#15                                       1 	(obj:0)
Taught#8#6#19                                       1 	(obj:0)
Taught#8#7#13                                       1 	(obj:0)
Taught#8#8#34                                       1 	(obj:0)
Taught#8#9#5                                        1 	(obj:0)
Taught#8#10#39                                      1 	(obj:0)
Taught#8#11#33                                      1 	(obj:0)
Taught#8#12#24                                      1 	(obj:0)
Taught#9#1#8                                        1 	(obj:0)
Taught#9#2#24                                       1 	(obj:0)
Taught#9#3#1                                        1 	(obj:0)
Taught#9#4#33                                       1 	(obj:0)
Taught#9#5#22                                       1 	(obj:0)
Taught#9#7#11                                       1 	(obj:0)
Taught#9#8#20                                       1 	(obj:0)
Taught#9#9#9                                        1 	(obj:0)
Taught#9#12#6                                       1 	(obj:0)
Taught#10#1#13                                      1 	(obj:0)
Taught#10#2#37                                      1 	(obj:0)
Taught#10#3#30                                      1 	(obj:0)
Taught#10#4#7                                       1 	(obj:0)
Taught#10#6#44                                      1 	(obj:0)
Taught#10#7#38                                      1 	(obj:0)
Taught#10#8#16                                      1 	(obj:0)
Taught#10#9#33                                      1 	(obj:0)
Taught#10#10#28                                     1 	(obj:0)
Taught#10#11#3                                      1 	(obj:0)
Taught#10#12#14                                     1 	(obj:0)
Taught#11#1#31                                      1 	(obj:0)
Taught#11#2#20                                      1 	(obj:0)
Taught#11#3#37                                      1 	(obj:0)
Taught#11#4#38                                      1 	(obj:0)
Taught#11#5#35                                      1 	(obj:0)
Taught#11#6#2                                       1 	(obj:0)
Taught#11#9#23                                      1 	(obj:0)
Taught#11#10#16                                     1 	(obj:0)
Taught#11#11#19                                     1 	(obj:0)
Taught#11#12#26                                     1 	(obj:0)
Taught#12#1#11                                      1 	(obj:0)
Taught#12#2#21                                      1 	(obj:0)
Taught#12#3#34                                      1 	(obj:0)
Taught#12#4#22                                      1 	(obj:0)
Taught#12#5#18                                      1 	(obj:0)
Taught#12#6#27                                      1 	(obj:0)
Taught#12#8#32                                      1 	(obj:0)
Taught#12#10#38                                     1 	(obj:0)
Taught#12#11#30                                     1 	(obj:0)
Taught#12#12#10                                     1 	(obj:0)
Taught#13#1#37                                      1 	(obj:0)
Taught#13#2#39                                      1 	(obj:0)
Taught#13#3#1                                       1 	(obj:0)
Taught#13#4#11                                      1 	(obj:0)
Taught#13#6#23                                      1 	(obj:0)
Taught#13#7#6                                       1 	(obj:0)
Taught#13#8#27                                      1 	(obj:0)
Taught#13#9#16                                      1 	(obj:0)
Taught#13#10#3                                      1 	(obj:0)
Taught#13#12#24                                     1 	(obj:0)
Taught#14#1#33                                      1 	(obj:0)
Taught#14#2#9                                       1 	(obj:0)
Taught#14#4#6                                       1 	(obj:0)
Taught#14#5#35                                      1 	(obj:0)
Taught#14#6#19                                      1 	(obj:0)
Taught#14#7#31                                      1 	(obj:0)
Taught#14#8#1                                       1 	(obj:0)
Taught#14#9#23                                      1 	(obj:0)
Taught#14#10#12                                     1 	(obj:0)
Taught#14#11#40                                     1 	(obj:0)
Taught#14#12#14                                     1 	(obj:0)
Taught#15#2#2                                       1 	(obj:0)
Taught#15#3#25                                      1 	(obj:0)
Taught#15#5#32                                      1 	(obj:0)
Taught#15#8#15                                      1 	(obj:0)
Taught#15#9#46                                      1 	(obj:0)
Taught#15#10#13                                     1 	(obj:0)
Taught#15#11#9                                      1 	(obj:0)
Taught#15#12#19                                     1 	(obj:0)
Taught#16#2#22                                      1 	(obj:0)
Taught#16#3#2                                       1 	(obj:0)
Taught#16#4#33                                      1 	(obj:0)
Taught#16#7#15                                      1 	(obj:0)
Taught#16#8#25                                      1 	(obj:0)
Taught#16#9#46                                      1 	(obj:0)
Taught#16#10#1                                      1 	(obj:0)
Taught#16#12#6                                      1 	(obj:0)
Taught#17#1#12                                      1 	(obj:0)
Taught#17#3#16                                      1 	(obj:0)
Taught#17#4#14                                      1 	(obj:0)
Taught#17#6#4                                       1 	(obj:0)
Taught#17#7#31                                      1 	(obj:0)
Taught#17#8#20                                      1 	(obj:0)
Taught#17#9#25                                      1 	(obj:0)
Taught#17#10#29                                     1 	(obj:0)
Taught#17#11#18                                     1 	(obj:0)
Taught#17#12#7                                      1 	(obj:0)
Taught#18#1#5                                       1 	(obj:0)
Taught#18#2#19                                      1 	(obj:0)
Taught#18#3#31                                      1 	(obj:0)
Taught#18#4#43                                      1 	(obj:0)
Taught#18#5#35                                      1 	(obj:0)
Taught#18#6#27                                      1 	(obj:0)
Taught#18#8#24                                      1 	(obj:0)
Taught#18#10#40                                     1 	(obj:0)
Taught#18#11#39                                     1 	(obj:0)
Taught#18#12#28                                     1 	(obj:0)
Taught#19#2#7                                       1 	(obj:0)
Taught#19#3#5                                       1 	(obj:0)
Taught#19#4#10                                      1 	(obj:0)
Taught#19#5#38                                      1 	(obj:0)
Taught#19#6#35                                      1 	(obj:0)
Taught#19#8#32                                      1 	(obj:0)
Taught#19#9#12                                      1 	(obj:0)
Taught#19#10#21                                     1 	(obj:0)
Taught#19#11#31                                     1 	(obj:0)
Taught#19#12#13                                     1 	(obj:0)
Taught#20#2#25                                      1 	(obj:0)
Taught#20#5#21                                      1 	(obj:0)
Taught#20#6#43                                      1 	(obj:0)
Taught#20#7#4                                       1 	(obj:0)
Taught#20#8#28                                      1 	(obj:0)
Taught#20#9#29                                      1 	(obj:0)
Taught#20#10#17                                     1 	(obj:0)
Taught#20#11#39                                     1 	(obj:0)
Taught#20#12#7                                      1 	(obj:0)

Statistics
==========

SCIP Status        : problem is solved [optimal solution found]
Solving Time       :       2.67
Original Problem   :
  Problem name     : udine1.ctt.c.zpl
  Variables        : 11040 (11040 binary, 0 integer, 0 implicit integer, 0 continuous)
  Constraints      : 2491 initial, 2491 maximal
Presolved Problem  :
  Problem name     : t_udine1.ctt.c.zpl
  Variables        : 10800 (10800 binary, 0 integer, 0 implicit integer, 0 continuous)
  Constraints      : 910 initial, 910 maximal
Presolvers         :       Time  FixedVars   AggrVars   ChgTypes  ChgBounds   AddHoles    DelCons   ChgSides   ChgCoefs
  trivial          :       0.01          0          0          0          0          0          0          0          0
  inttobinary      :       0.00          0          0          0          0          0          0          0          0
  dualfix          :       0.01          0          0          0          0          0          0          0          0
  implics          :       0.00          0          0          0          0          0          0          0          0
  probing          :       1.51          0          0          0          0          0          0          0          0
  setppc           :       0.03          0          0          0          0          0          0          0          0
  linear           :       0.27        240          0          0        240          0       1581       1582          0
  root node        :          -          0          -          -          0          -          -          -          -
Constraints        :     Number  #Separate #Propagate    #EnfoLP    #EnfoPS    Cutoffs    DomReds       Cuts      Conss   Children
  integral         :          0          0          0          1          0          0          0          0          0          0
  setppc           :        838          1        201          1          0          0          0          0          0          0
  linear           :         72          1        201          1          0          0          0          0          0          0
Constraint Timings :  TotalTime   Separate  Propagate     EnfoLP     EnfoPS
  integral         :       0.00       0.00       0.00       0.00       0.00
  setppc           :       0.00       0.00       0.00       0.00       0.00
  linear           :       1.13       0.00       1.13       0.00       0.00
Propagators        :       Time      Calls    Cutoffs    DomReds
  rootredcost      :       0.00          0          0          0
  pseudoobj        :       0.00          1          0          0
Conflict Analysis  :       Time      Calls    Success  Conflicts   Literals    Reconvs ReconvLits   LP Iters
  propagation      :       0.00          0          0          0        0.0          0        0.0          -
  infeasible LP    :       0.00          0          0          0        0.0          0        0.0          0
  bound exceed. LP :       0.00          0          0          0        0.0          0        0.0          0
  strong branching :       0.00          0          0          0        0.0          0        0.0          0
  pseudo solution  :       0.00          0          0          0        0.0          0        0.0          -
  applied globally :          -          -          -          0        0.0          -          -          -
  applied locally  :          -          -          -          0        0.0          -          -          -
Separators         :       Time      Calls    Cutoffs    DomReds       Cuts      Conss
  cut pool         :       0.00          0          -          -          0          -    (maximal pool size: 0)
  redcost          :       0.00          1          0          0          0          0
  impliedbounds    :       0.00          0          0          0          0          0
  intobj           :       0.00          0          0          0          0          0
  gomory           :       0.00          1          0          0          0          0
  strongcg         :       0.00          1          0          0          0          0
  cmir             :       0.02          1          0          0          0          0
  clique           :       0.02          1          0          0          0          0
Pricers            :       Time      Calls       Vars
  problem variables:       0.00          0          0
Branching Rules    :       Time      Calls    Cutoffs    DomReds       Cuts      Conss   Children
  allfullstrong    :       0.00          0          0          0          0          0          0
  fullstrong       :       0.00          0          0          0          0          0          0
  inference        :       0.00          0          0          0          0          0          0
  mostinf          :       0.00          0          0          0          0          0          0
  leastinf         :       0.00          0          0          0          0          0          0
  pscost           :       0.00          0          0          0          0          0          0
  relpscost        :       0.00          0          0          0          0          0          0
Primal Heuristics  :       Time      Calls      Found
  LP solutions     :       0.01          -          1
  pseudo solutions :       0.00          -          0
  simplerounding   :       0.00          0          0
  rounding         :       0.00          0          0
  shifting         :       0.00          0          0
  fixandinfer      :       0.00          0          0
  feaspump         :       0.00          0          0
  coefdiving       :       0.00          0          0
  pscostdiving     :       0.00          0          0
  fracdiving       :       0.00          0          0
  intdiving        :       0.00          0          0
  objpscostdiving  :       0.00          0          0
  rootsoldiving    :       0.00          0          0
  linesearchdiving :       0.00          0          0
  guideddiving     :       0.00          0          0
  octane           :       0.00          0          0
  rins             :       0.00          0          0
  localbranching   :       0.00          0          0
  crossover        :       0.00          0          0
LP                 :       Time      Calls Iterations  Iter/call   Iter/sec
  primal LP        :       0.00          0          0       0.00          -
  dual LP          :       0.43          1       1363    1363.00    3169.77
  barrier LP       :       0.00          0          0       0.00          -
  diving/probing LP:       0.00          0          0       0.00          -
  strong branching :       0.00          0          0       0.00          -
    (at root node) :          -          0          0       0.00          -
  conflict analysis:       0.00          0          0       0.00          -
B&B Tree           :
  number of runs   :          1
  nodes            :          1
  nodes (total)    :          1
  nodes left       :          0
  max depth        :          0
  max depth (total):          0
  backtracks       :          0 (0.0%)
  delayed cutoffs  :          0
  repropagations   :          0 (0 domain reductions, 0 cutoffs)
  avg switch length:       2.00
  switching time   :       0.00
Solution           :
  Solutions found  :          1 (1 improvements)
  Primal Bound     : +0.00000000000000e+00   (in run 1, after 1 nodes, 2.66 seconds, depth 0, found by <relaxation>)
  Dual Bound       : +0.00000000000000e+00
  Gap              :       0.00 %
  Root Dual Bound  : +0.00000000000000e+00
